30 32 
51 47 
93 74 
46 45 
38 10 
80 11 
72 67 
66 37 
3 34 
63 97 
78 44 
4 87 
65 29 
97 9 
27 15 
11 9 
0 14 
56 93 
40 3 
38 30 
65 19 
41 37 
86 59 
26 42 
94 89 
91 72 
33 95 
59 50 
25 9 
60 4 
76 23 
13 76 
89 21 
69 29 
76 60 
59 42 
31 1 
79 69 
12 58 
11 6 
47 54 
30 33 
50 42 
83 27 
51 43 
31 27 
18 96 
56 7 
17 25 
88 46 
